\ Model multiRobot
\ LP format - for model browsing. Use MPS format to capture full model detail.
Minimize
  setSlower + 0 F(1)(4) + 0 F(2)(3) + 0 F(3)(2) + 0 F(4)(1) + 0 y(1)(4)(1)
   + 0 y(1)(4)(2) + 0 y(2)(3)(1) + 0 y(2)(3)(2) + 0 y(3)(2)(1)
   + 0 y(3)(2)(2) + 0 y(4)(1)(1) + 0 y(4)(1)(2)
Subject To
 vin[3](1): 10 x(1)(1) + 6 x(2)(1) + 7 x(3)(1) + 5 x(4)(1) - setSlower
   <= 0
 vin[3](2): 10 x(1)(2) + 6 x(2)(2) + 7 x(3)(2) + 5 x(4)(2) - setSlower
   <= 0
 vin[4](1): x(1)(1) + x(1)(2) = 1
 vin[4](2): x(2)(1) + x(2)(2) = 1
 vin[4](3): x(3)(1) + x(3)(2) = 1
 vin[4](4): x(4)(1) + x(4)(2) = 1
 vin[5](1)(1): - x(1)(1) + r(1)(1) <= 0
 vin[5](1)(2): - x(1)(2) + r(1)(2) <= 0
 vin[5](2)(1): - x(2)(1) + r(2)(1) <= 0
 vin[5](2)(2): - x(2)(2) + r(2)(2) <= 0
 vin[5](3)(1): - x(3)(1) + r(3)(1) <= 0
 vin[5](3)(2): - x(3)(2) + r(3)(2) <= 0
 vin[5](4)(1): - x(4)(1) + r(4)(1) <= 0
 vin[5](4)(2): - x(4)(2) + r(4)(2) <= 0
 vin[6](1): r(1)(1) + r(2)(1) + r(3)(1) + r(4)(1) = 1
 vin[6](2): r(1)(2) + r(2)(2) + r(3)(2) + r(4)(2) = 1
 vin[7](1)(1): x(1)(1) + 4 r(1)(1) <= 5
 vin[7](1)(2): x(1)(2) + 4 r(1)(2) <= 5
 vin[7](2)(1): x(1)(1) + x(2)(1) + 4 r(2)(1) <= 5
 vin[7](2)(2): x(1)(2) + x(2)(2) + 4 r(2)(2) <= 5
 vin[7](3)(1): x(1)(1) + x(2)(1) + x(3)(1) + 4 r(3)(1) <= 5
 vin[7](3)(2): x(1)(2) + x(2)(2) + x(3)(2) + 4 r(3)(2) <= 5
 vin[7](4)(1): x(1)(1) + x(2)(1) + x(3)(1) + x(4)(1) + 4 r(4)(1) <= 5
 vin[7](4)(2): x(1)(2) + x(2)(2) + x(3)(2) + x(4)(2) + 4 r(4)(2) <= 5
 vin[8](1): - 4 r(1)(1) - 4 r(1)(2) + F(5)(1) <= 0
 vin[8](2): - 4 r(2)(1) - 4 r(2)(2) + F(5)(2) <= 0
 vin[8](3): - 4 r(3)(1) - 4 r(3)(2) + F(5)(3) <= 0
 vin[8](4): - 4 r(4)(1) - 4 r(4)(2) + F(5)(4) <= 0
 vin[9]: F(5)(1) + F(5)(2) + F(5)(3) + F(5)(4) = 4
 vin[10](1): - F(1)(2) - F(1)(3) + F(2)(1) + F(3)(1) + F(5)(1) = 1
 vin[10](2): F(1)(2) - F(2)(1) - F(2)(4) + F(4)(2) + F(5)(2) = 1
 vin[10](3): F(1)(3) - F(3)(1) - F(3)(4) + F(4)(3) + F(5)(3) = 1
 vin[10](4): F(2)(4) + F(3)(4) - F(4)(2) - F(4)(3) + F(5)(4) = 1
 vin[11](1)(2): F(1)(2) - 4 y(1)(2)(1) - 4 y(1)(2)(2) <= 0
 vin[12](1)(2)(1): - x(1)(1) + y(1)(2)(1) <= 0
 vin[13](1)(2)(1): - x(2)(1) + y(1)(2)(1) <= 0
 vin[14](1)(2)(1): y(1)(2)(1) >= 0
 vin[15](1)(2)(1): - x(1)(1) - x(2)(1) + y(1)(2)(1) >= -1
 vin[12](1)(2)(2): - x(1)(2) + y(1)(2)(2) <= 0
 vin[13](1)(2)(2): - x(2)(2) + y(1)(2)(2) <= 0
 vin[14](1)(2)(2): y(1)(2)(2) >= 0
 vin[15](1)(2)(2): - x(1)(2) - x(2)(2) + y(1)(2)(2) >= -1
 vin[11](1)(3): F(1)(3) - 4 y(1)(3)(1) - 4 y(1)(3)(2) <= 0
 vin[12](1)(3)(1): - x(1)(1) + y(1)(3)(1) <= 0
 vin[13](1)(3)(1): - x(3)(1) + y(1)(3)(1) <= 0
 vin[14](1)(3)(1): y(1)(3)(1) >= 0
 vin[15](1)(3)(1): - x(1)(1) - x(3)(1) + y(1)(3)(1) >= -1
 vin[12](1)(3)(2): - x(1)(2) + y(1)(3)(2) <= 0
 vin[13](1)(3)(2): - x(3)(2) + y(1)(3)(2) <= 0
 vin[14](1)(3)(2): y(1)(3)(2) >= 0
 vin[15](1)(3)(2): - x(1)(2) - x(3)(2) + y(1)(3)(2) >= -1
 vin[11](2)(1): F(2)(1) - 4 y(2)(1)(1) - 4 y(2)(1)(2) <= 0
 vin[12](2)(1)(1): - x(2)(1) + y(2)(1)(1) <= 0
 vin[13](2)(1)(1): - x(1)(1) + y(2)(1)(1) <= 0
 vin[14](2)(1)(1): y(2)(1)(1) >= 0
 vin[15](2)(1)(1): - x(1)(1) - x(2)(1) + y(2)(1)(1) >= -1
 vin[12](2)(1)(2): - x(2)(2) + y(2)(1)(2) <= 0
 vin[13](2)(1)(2): - x(1)(2) + y(2)(1)(2) <= 0
 vin[14](2)(1)(2): y(2)(1)(2) >= 0
 vin[15](2)(1)(2): - x(1)(2) - x(2)(2) + y(2)(1)(2) >= -1
 vin[11](2)(4): F(2)(4) - 4 y(2)(4)(1) - 4 y(2)(4)(2) <= 0
 vin[12](2)(4)(1): - x(2)(1) + y(2)(4)(1) <= 0
 vin[13](2)(4)(1): - x(4)(1) + y(2)(4)(1) <= 0
 vin[14](2)(4)(1): y(2)(4)(1) >= 0
 vin[15](2)(4)(1): - x(2)(1) - x(4)(1) + y(2)(4)(1) >= -1
 vin[12](2)(4)(2): - x(2)(2) + y(2)(4)(2) <= 0
 vin[13](2)(4)(2): - x(4)(2) + y(2)(4)(2) <= 0
 vin[14](2)(4)(2): y(2)(4)(2) >= 0
 vin[15](2)(4)(2): - x(2)(2) - x(4)(2) + y(2)(4)(2) >= -1
 vin[11](3)(1): F(3)(1) - 4 y(3)(1)(1) - 4 y(3)(1)(2) <= 0
 vin[12](3)(1)(1): - x(3)(1) + y(3)(1)(1) <= 0
 vin[13](3)(1)(1): - x(1)(1) + y(3)(1)(1) <= 0
 vin[14](3)(1)(1): y(3)(1)(1) >= 0
 vin[15](3)(1)(1): - x(1)(1) - x(3)(1) + y(3)(1)(1) >= -1
 vin[12](3)(1)(2): - x(3)(2) + y(3)(1)(2) <= 0
 vin[13](3)(1)(2): - x(1)(2) + y(3)(1)(2) <= 0
 vin[14](3)(1)(2): y(3)(1)(2) >= 0
 vin[15](3)(1)(2): - x(1)(2) - x(3)(2) + y(3)(1)(2) >= -1
 vin[11](3)(4): F(3)(4) - 4 y(3)(4)(1) - 4 y(3)(4)(2) <= 0
 vin[12](3)(4)(1): - x(3)(1) + y(3)(4)(1) <= 0
 vin[13](3)(4)(1): - x(4)(1) + y(3)(4)(1) <= 0
 vin[14](3)(4)(1): y(3)(4)(1) >= 0
 vin[15](3)(4)(1): - x(3)(1) - x(4)(1) + y(3)(4)(1) >= -1
 vin[12](3)(4)(2): - x(3)(2) + y(3)(4)(2) <= 0
 vin[13](3)(4)(2): - x(4)(2) + y(3)(4)(2) <= 0
 vin[14](3)(4)(2): y(3)(4)(2) >= 0
 vin[15](3)(4)(2): - x(3)(2) - x(4)(2) + y(3)(4)(2) >= -1
 vin[11](4)(2): F(4)(2) - 4 y(4)(2)(1) - 4 y(4)(2)(2) <= 0
 vin[12](4)(2)(1): - x(4)(1) + y(4)(2)(1) <= 0
 vin[13](4)(2)(1): - x(2)(1) + y(4)(2)(1) <= 0
 vin[14](4)(2)(1): y(4)(2)(1) >= 0
 vin[15](4)(2)(1): - x(2)(1) - x(4)(1) + y(4)(2)(1) >= -1
 vin[12](4)(2)(2): - x(4)(2) + y(4)(2)(2) <= 0
 vin[13](4)(2)(2): - x(2)(2) + y(4)(2)(2) <= 0
 vin[14](4)(2)(2): y(4)(2)(2) >= 0
 vin[15](4)(2)(2): - x(2)(2) - x(4)(2) + y(4)(2)(2) >= -1
 vin[11](4)(3): F(4)(3) - 4 y(4)(3)(1) - 4 y(4)(3)(2) <= 0
 vin[12](4)(3)(1): - x(4)(1) + y(4)(3)(1) <= 0
 vin[13](4)(3)(1): - x(3)(1) + y(4)(3)(1) <= 0
 vin[14](4)(3)(1): y(4)(3)(1) >= 0
 vin[15](4)(3)(1): - x(3)(1) - x(4)(1) + y(4)(3)(1) >= -1
 vin[12](4)(3)(2): - x(4)(2) + y(4)(3)(2) <= 0
 vin[13](4)(3)(2): - x(3)(2) + y(4)(3)(2) <= 0
 vin[14](4)(3)(2): y(4)(3)(2) >= 0
 vin[15](4)(3)(2): - x(3)(2) - x(4)(2) + y(4)(3)(2) >= -1
Bounds
Binaries
 x(1)(1) x(1)(2) x(2)(1) x(2)(2) x(3)(1) x(3)(2) x(4)(1) x(4)(2) r(1)(1)
 r(1)(2) r(2)(1) r(2)(2) r(3)(1) r(3)(2) r(4)(1) r(4)(2) y(1)(2)(1)
 y(1)(2)(2) y(1)(3)(1) y(1)(3)(2) y(1)(4)(1) y(1)(4)(2) y(2)(1)(1)
 y(2)(1)(2) y(2)(3)(1) y(2)(3)(2) y(2)(4)(1) y(2)(4)(2) y(3)(1)(1)
 y(3)(1)(2) y(3)(2)(1) y(3)(2)(2) y(3)(4)(1) y(3)(4)(2) y(4)(1)(1)
 y(4)(1)(2) y(4)(2)(1) y(4)(2)(2) y(4)(3)(1) y(4)(3)(2)
Generals
 F(1)(2) F(1)(3) F(1)(4) F(2)(1) F(2)(3) F(2)(4) F(3)(1) F(3)(2) F(3)(4)
 F(4)(1) F(4)(2) F(4)(3) F(5)(1) F(5)(2) F(5)(3) F(5)(4)
End
